c WARNING: for repeatability, setting FPU to use double precision
d VARIABLES            140866       
d CONSTRAINTS          512628       
c ============================[ Problem Statistics ]=============================
c |                                                                             |
c |  Number of variables:        140866                                         |
c |  Number of clauses:          512628                                         |
c |  Parse time:                   0.09 s                                       |
c |                                                                             |
c ============================[ Search Statistics ]==============================
c | Conflicts |          ORIGINAL         |          LEARNT          | Progress |
c |           |    Vars  Clauses Literals |    Limit  Clauses Lit/Cl |          |
c ===============================================================================
c |       100 |  110692   434406  1091027 |   159282      100     46 | 21.420 % |
c |       250 |  110692   434406  1091027 |   175210      250     54 | 21.420 % |
c |       475 |  110692   434406  1091027 |   192731      475     35 | 21.420 % |
c |       812 |  110692   434406  1091027 |   212004      812     81 | 21.420 % |
c |      1318 |  110692   434406  1091027 |   233205     1318     78 | 21.420 % |
c |      2077 |  110692   434406  1091027 |   256525     2077     53 | 21.420 % |
c |      3216 |  110692   434406  1091027 |   282178     3216    101 | 21.420 % |
c |      4924 |  110692   434406  1091027 |   310395     4924     81 | 21.420 % |
c |      7486 |  110692   434406  1091027 |   341435     7486     96 | 21.420 % |
c |     11330 |  110692   434406  1091027 |   375579    11330    130 | 21.420 % |
c |     17096 |  110692   434406  1091027 |   413137    17096    133 | 21.420 % |
c |     25745 |  110692   434406  1091027 |   454450    25745    123 | 21.420 % |
c |     38719 |  110692   434406  1091027 |   499895    38719    145 | 21.420 % |
c |     58180 |  110692   434406  1091027 |   549885    58180    153 | 21.420 % |
c |     87372 |  110692   434406  1091027 |   604873    87372    148 | 21.420 % |
c |    131161 |  110692   434406  1091027 |   665361   131161    146 | 21.420 % |
c |    196845 |  110692   434406  1091027 |   731897   196845    144 | 21.420 % |
c |    295371 |  110692   434406  1091027 |   805087   295371    159 | 21.420 % |
c ===============================================================================
c restarts              : 810
c conflicts             : 343293         (2282 /sec)
c decisions             : 1410149        (0.00 % random) (9374 /sec)
c propagations          : 523693287      (3481415 /sec)
c conflict literals     : 53119913       (36.27 % deleted)
d RESTARTS             810
d FAILURES             343293       
d NODES                1410149      
d BACKTRACKS           1410149      
d PROPAGATIONS         523693287    
d NOGOODSIZE           154.74 
d MEMORY               397.00 
d TIME                 150.425 

s SATISFIABLE
